HUN,8,6,260
2,87,1,35,0,6,5,82,4,37,3,9
0,70,4,31,3,55,2,95,5,73,1,97
0,30,4,42,5,65,1,40,3,65,2,90
4,75,0,46,1,27,3,69,2,5,5,25
5,13,0,49,3,82,4,1,2,36,1,56
5,21,2,62,0,85,3,45,1,59,4,13
0,80,4,61,2,10,5,15,3,8,1,18
1,15,0,31,3,70,4,48,2,43,5,84
